(declare-const delta_x Int)
(declare-const delta_y Int)
(declare-const delta_tmp___1 Int)
(declare-const delta_tmp___0 Int)
(declare-const delta_tmp Int)
(declare-const delta_z Int)
(declare-const delta_w Int)
(assert (exists
         ((|tmp___1'?1| Int) (havoc?2 Int) (phi_tmp___0?3 Int)
            (|tmp___0'?4| Int) (|S2,0?5| Real) (|S1,0?6| Real) (|z'?7| Int)
            (|w'?8| Int) (KSUM2?9 Int) (KSUM1?10 Int) (R2?11 Int)
            (|K1,0?12| Int) (K?13 Int) (havoc?14 Int) (phi_tmp?15 Int)
            (|tmp'?16| Int) (|S4,0?17| Real) (|S3,1?18| Real)
            (|S3,0?19| Real) (|S2,0?20| Real) (|S1,0?21| Real) (|y'?22| Int)
            (|x'?23| Int) (KSUM4?24 Int) (KSUM3?25 Int) (KSUM2?26 Int)
            (KSUM1?27 Int) (R4?28 Int) (R2?29 Int) (R1?30 Int)
            (|K4,0?31| Int) (|K3,1?32| Int) (|K3,0?33| Int) (|K1,1?34| Int)
            (K?35 Int) (havoc?36 Int) (|tmp'?37| Int) (|y'?38| Int)
            (|x'?39| Int) (|tmp___0'?40| Int) (|z'?41| Int) (|w'?42| Int)
            (tmp___0?43 Int) (z?44 Int) (w?45 Int) (x?46 Int) (y?47 Int)
            (tmp?48 Int) (tmp___1?49 Int))
         (and (<= (- z?44) 0) (< (- w?45) 0) (<= (- x?46) 0) (<= (- y?47) 0)
                (= (+ (- y?47) x?46) 0) (= (+ (- w?45) z?44 1) 0)
                (or (< havoc?36 0) (< 0 havoc?36)) (<= (- K?35) 0)
                (<= (- |K1,1?34|) 0) (<= (- |K3,0?33|) 0)
                (<= (- |K3,1?32|) 0) (<= (- |K4,0?31|) 0)
                (or (and (= (+ |K1,1?34| (- K?35)) 0) (= (+ R1?30 1) 0))
                      (and (or (< (+ |K1,1?34| (- K?35)) 0)
                                 (< 0 (+ |K1,1?34| (- K?35))))
                             (or (< (+ R1?30 1) 0) (< 0 (+ R1?30 1)))))
                (or (and (= (- K?35) 0) (= (+ R2?29 1) 0))
                      (and (or (< (- K?35) 0) (< 0 (- K?35)))
                             (or (< (+ R2?29 1) 0) (< 0 (+ R2?29 1)))))
                (= (+ |K3,1?32| |K3,0?33| (- K?35)) 0)
                (or (and (= (+ |K4,0?31| (- K?35)) 0) (= (+ R4?28 1) 0))
                      (and (or (< (+ |K4,0?31| (- K?35)) 0)
                                 (< 0 (+ |K4,0?31| (- K?35))))
                             (or (< (+ R4?28 1) 0) (< 0 (+ R4?28 1)))))
                (or (<= (+ (- |K3,1?32|) |K1,1?34|) 0)
                      (and (= |K3,0?33| 0) (<= (+ |K3,1?32| (- |K1,1?34|)) 0)))
                (or (= |K1,1?34| 0) (= |K4,0?31| 0))
                (or (and (<= (+ (- |K4,0?31|) |K3,0?33|) 0) (= |K3,1?32| 0))
                      (<= (+ |K4,0?31| (- |K3,0?33|)) 0))
                (or (and (= (+ (- KSUM2?26) KSUM1?27) 0)
                           (= (+ (- R2?29) R1?30) 0))
                      (and (or (< (+ (- KSUM2?26) KSUM1?27) 0)
                                 (< 0 (+ (- KSUM2?26) KSUM1?27)))
                             (or (< (+ (- R2?29) R1?30) 0)
                                   (< 0 (+ (- R2?29) R1?30)))))
                (or (and (= (+ (- KSUM3?25) KSUM1?27) 0) (= (+ R1?30 1) 0))
                      (and (or (< (+ (- KSUM3?25) KSUM1?27) 0)
                                 (< 0 (+ (- KSUM3?25) KSUM1?27)))
                             (or (< (+ R1?30 1) 0) (< 0 (+ R1?30 1)))))
                (or (and (= (+ (- KSUM4?24) KSUM1?27) 0)
                           (= (+ (- R4?28) R1?30) 0))
                      (and (or (< (+ (- KSUM4?24) KSUM1?27) 0)
                                 (< 0 (+ (- KSUM4?24) KSUM1?27)))
                             (or (< (+ (- R4?28) R1?30) 0)
                                   (< 0 (+ (- R4?28) R1?30)))))
                (or (and (= (+ (- KSUM3?25) KSUM2?26) 0) (= (+ R2?29 1) 0))
                      (and (or (< (+ (- KSUM3?25) KSUM2?26) 0)
                                 (< 0 (+ (- KSUM3?25) KSUM2?26)))
                             (or (< (+ R2?29 1) 0) (< 0 (+ R2?29 1)))))
                (or (and (= (+ (- KSUM4?24) KSUM2?26) 0)
                           (= (+ (- R4?28) R2?29) 0))
                      (and (or (< (+ (- KSUM4?24) KSUM2?26) 0)
                                 (< 0 (+ (- KSUM4?24) KSUM2?26)))
                             (or (< (+ (- R4?28) R2?29) 0)
                                   (< 0 (+ (- R4?28) R2?29)))))
                (or (and (= (+ (- KSUM4?24) KSUM3?25) 0)
                           (= (+ (- R4?28) -1) 0))
                      (and (or (< (+ (- KSUM4?24) KSUM3?25) 0)
                                 (< 0 (+ (- KSUM4?24) KSUM3?25)))
                             (or (< (+ (- R4?28) -1) 0)
                                   (< 0 (+ (- R4?28) -1)))))
                (<= (+ KSUM1?27 (- K?35)) 0) (<= (+ KSUM2?26 (- K?35)) 0)
                (<= (+ KSUM3?25 (- K?35)) 0) (<= (+ KSUM4?24 (- K?35)) 0)
                (= (+ (- |S1,0?21|) (- |y'?22|) |x'?23|) 0)
                (= (+ (- |S2,0?20|) (- |y'?22|) |x'?23|) 0)
                (= (+ (- |S3,0?19|) |x'?23| (- |K3,0?33|)) 0)
                (= (+ (- |S3,1?18|) |y'?22| (- |K3,0?33|)) 0)
                (= (+ (- |S4,0?17|) (- |y'?22|) |x'?23|) 0)
                (= (+ (- KSUM1?27) |K1,1?34|) 0) (= (- KSUM2?26) 0)
                (= (+ (- KSUM3?25) |K3,1?32| |K3,0?33|) 0)
                (= (+ (- KSUM4?24) |K4,0?31|) 0)
                (or (and (= (+ |S1,0?21| y?47 (- x?46)) 0) (= (+ R1?30 1) 0))
                      (and (= |S1,0?21| 0) (<= 0 (+ (- KSUM2?26) KSUM1?27))
                             (or (<= 0 (+ (- KSUM3?25) KSUM1?27))
                                   (<= (+ (- |K3,0?33|) 1) 0))
                             (or (<= 0 (+ (- KSUM4?24) KSUM1?27))
                                   (<= (+ (- |K4,0?31|) 1) 0)) (= R1?30 0)))
                (or (and (= (+ |S2,0?20| y?47 (- x?46)) 0) (= (+ R2?29 1) 0))
                      (and (= |S2,0?20| 0) (<= 0 (+ KSUM2?26 (- KSUM1?27)))
                             (or (<= 0 (+ (- KSUM3?25) KSUM2?26))
                                   (<= (+ (- |K3,0?33|) 1) 0))
                             (or (<= 0 (+ (- KSUM4?24) KSUM2?26))
                                   (<= (+ (- |K4,0?31|) 1) 0)) (= R2?29 0))
                      (and (= |S2,0?20| 0)
                             (or (<= 0 (+ KSUM2?26 (- KSUM1?27)))
                                   (<= (+ (- |K1,1?34|) 1) 0))
                             (or (<= 0 (+ (- KSUM3?25) KSUM2?26))
                                   (<= (+ (- |K3,1?32|) 1) 0))
                             (<= 0 (+ (- KSUM4?24) KSUM2?26))
                             (= (+ R2?29 -1) 0)))
                (= (+ |S3,0?19| (- x?46)) 0) (= (+ |S3,1?18| (- y?47)) 0)
                (or (and (= (+ |S4,0?17| y?47 (- x?46)) 0) (= (+ R4?28 1) 0))
                      (and (= |S4,0?17| 0)
                             (or (<= 0 (+ KSUM4?24 (- KSUM1?27)))
                                   (<= (+ (- |K1,1?34|) 1) 0))
                             (<= 0 (+ KSUM4?24 (- KSUM2?26)))
                             (or (<= 0 (+ KSUM4?24 (- KSUM3?25)))
                                   (<= (+ (- |K3,1?32|) 1) 0))
                             (= (+ R4?28 -1) 0)))
                (or (and (= K?35 0) (= (+ (- |tmp'?16|) tmp?48) 0)
                           (= (+ (- |y'?22|) y?47) 0)
                           (= (+ (- |x'?23|) x?46) 0))
                      (and (<= (+ (- K?35) 1) 0) (= (+ (- w?45) z?44 1) 0)
                             (= (+ (- y?47) x?46) 0)
                             (= (+ (mod w?45 2) (mod z?44 2) -1) 0)
                             (<= (+ y?47 -100000) 0)
                             (<= (+ (mod z?44 2) -1) 0)
                             (<= (- (mod z?44 2)) 0) (<= (- y?47) 0)
                             (<= (+ (- w?45) 1) 0) (= (+ (- w?45) z?44 1) 0)
                             (= (+ |y'?22| (- |x'?23|)) 0)
                             (= (+ (mod w?45 2) (mod z?44 2) -1) 0)
                             (<= (+ (mod z?44 2) |x'?23| -100001) 0)
                             (<= (+ (mod z?44 2) -1) 0)
                             (<= (- (mod z?44 2)) 0)
                             (<= (+ (- (mod z?44 2)) (- |x'?23|) 1) 0)
                             (<= (+ (- w?45) 1) 0)))
                (= (+ (- |y'?22|) |x'?23| y?47 (- x?46)) 0)
                (<= (+ |y'?22| (- K?35) (- y?47)) 0)
                (<= (+ (- |y'?22|) y?47) 0) (<= (- K?35) 0)
                (or (and (or (and (<= (- z?44) 0) (< (- w?45) 0)
                                    (<= (- |x'?23|) 0) (<= (- |y'?22|) 0)
                                    (= (+ (- |y'?22|) |x'?23|) 0)
                                    (= (+ (- w?45) z?44 1) 0)
                                    (< (+ (- |x'?23|) 100000) 0))
                               (and (<= (- z?44) 0) (< (- w?45) 0)
                                      (<= (- |x'?23|) 0) (<= (- |y'?22|) 0)
                                      (= (+ (- |y'?22|) |x'?23|) 0)
                                      (= (+ (- w?45) z?44 1) 0)
                                      (<= (+ |x'?23| -100000) 0)
                                      (< (+ (- |y'?22|) 100000) 0)))
                           (= (+ (- phi_tmp?15) |tmp'?16|) 0))
                      (and (<= (- z?44) 0) (< (- w?45) 0) (<= (- |x'?23|) 0)
                             (<= (- |y'?22|) 0) (= (+ (- |y'?22|) |x'?23|) 0)
                             (= (+ (- w?45) z?44 1) 0)
                             (<= (+ |x'?23| -100000) 0)
                             (<= (+ |y'?22| -100000) 0) (= havoc?14 0)
                             (= (+ havoc?14 (- phi_tmp?15)) 0)))
                (<= (- K?13) 0) (<= (- |K1,0?12|) 0)
                (= (+ |K1,0?12| (- K?13)) 0)
                (or (and (= (- K?13) 0) (= (+ R2?11 1) 0))
                      (and (or (< (- K?13) 0) (< 0 (- K?13)))
                             (or (< (+ R2?11 1) 0) (< 0 (+ R2?11 1)))))
                (or (and (= (+ (- KSUM2?9) KSUM1?10) 0)
                           (= (+ (- R2?11) -1) 0))
                      (and (or (< (+ (- KSUM2?9) KSUM1?10) 0)
                                 (< 0 (+ (- KSUM2?9) KSUM1?10)))
                             (or (< (+ (- R2?11) -1) 0)
                                   (< 0 (+ (- R2?11) -1)))))
                (<= (+ KSUM1?10 (- K?13)) 0) (<= (+ KSUM2?9 (- K?13)) 0)
                (= (+ (- |S1,0?6|) (- |z'?7|) |w'?8|) 0)
                (= (+ (- |S2,0?5|) (- |z'?7|) |w'?8|) 0)
                (= (+ (- KSUM1?10) |K1,0?12|) 0) (= (- KSUM2?9) 0)
                (= (+ |S1,0?6| (- w?45) z?44) 0)
                (or (and (= (+ |S2,0?5| (- w?45) z?44) 0) (= (+ R2?11 1) 0))
                      (and (= (+ |S2,0?5| -1) 0)
                             (or (<= 0 (+ KSUM2?9 (- KSUM1?10)))
                                   (<= (+ (- |K1,0?12|) 1) 0)) (= R2?11 0)))
                (or (and (= K?13 0) (= (+ (- |tmp___0'?4|) tmp___0?43) 0)
                           (= (+ (- |z'?7|) z?44) 0)
                           (= (+ (- |w'?8|) w?45) 0))
                      (and (<= (+ (- K?13) 1) 0) (= (+ (- w?45) z?44 1) 0)
                             (= (+ (- |y'?22|) |x'?23|) 0)
                             (<= (+ w?45 -100000) 0) (<= (- |y'?22|) 0)
                             (<= (+ (- w?45) 1) 0)
                             (= (+ |z'?7| (* -2 |y'?22|)) 0)
                             (= (+ |w'?8| (* -2 |y'?22|) -1) 0)
                             (= (+ (- |y'?22|) |x'?23|) 0) (<= (- |y'?22|) 0)))
                (= (+ (- |z'?7|) |w'?8| (- w?45) z?44) 0)
                (<= (+ (- |z'?7|) (* -99999 K?13) z?44) 0) (<= (- K?13) 0)
                (or (and (<= (- |z'?7|) 0) (< (- |w'?8|) 0)
                           (<= (- |x'?23|) 0) (<= (- |y'?22|) 0)
                           (= (+ (- |y'?22|) |x'?23|) 0)
                           (= (+ |z'?7| (- |w'?8|) 1) 0)
                           (< (+ (- |w'?8|) 100000) 0)
                           (= (+ (- phi_tmp___0?3) |tmp___0'?4|) 0))
                      (and (<= (- |z'?7|) 0) (< (- |w'?8|) 0)
                             (<= (- |x'?23|) 0) (<= (- |y'?22|) 0)
                             (= (+ (- |y'?22|) |x'?23|) 0)
                             (= (+ |z'?7| (- |w'?8|) 1) 0)
                             (<= (+ |w'?8| -100000) 0) (= havoc?2 0)
                             (= (+ havoc?2 (- phi_tmp___0?3)) 0)))
                (= (+ |tmp___1'?1| (- havoc?36)) 0)
                (= (+ |tmp___0'?40| (- phi_tmp___0?3)) 0)
                (= (+ |tmp'?37| (- phi_tmp?15)) 0)
                (= (+ |y'?38| (- |y'?22|)) 0) (= (+ |x'?39| (- |x'?23|)) 0)
                (= (+ |z'?41| (- |z'?7|)) 0) (= (+ |w'?42| (- |w'?8|)) 0)
                (= delta_w (+ |w'?42| (- w?45)))
                (= delta_z (+ |z'?41| (- z?44)))
                (= delta_x (+ |x'?39| (- x?46)))
                (= delta_y (+ |y'?38| (- y?47)))
                (= delta_tmp (+ |tmp'?37| (- tmp?48)))
                (= delta_tmp___0 (+ |tmp___0'?40| (- tmp___0?43)))
                (= delta_tmp___1 (+ |tmp___1'?1| (- tmp___1?49))))))
(check-sat)
